p cnf 7 33
-6 -4 3 0
-4 -6 3 7 0
3 -5 4 0
-2 -5 -1 3 -7 0
-5 -3 -7 0
-6 -3 0
2 -7 -3 -5 0
-4 -7 -2 1 5 -3 6 0
-6 7 1 0
-2 1 7 -4 -6 0
-1 -3 2 0
-7 4 -3 0
1 -3 -4 0
5 7 2 6 -4 0
2 -3 5 4 0
5 7 1 -6 0
7 -4 -2 0
5 -1 0
2 -7 6 1 0
-2 1 0
-3 -2 1 0
4 6 0
1 -4 3 -6 -2 7 -5 0
-1 7 2 3 -4 0
2 5 0
-3 7 -4 0
-5 -4 -2 -7 -3 -1 0
5 7 0
-7 2 4 0
6 -5 1 7 -2 0
3 -7 0
-1 3 -4 0
-3 -4 -5 0
